words_train/words_908_SAT.qaiger
aag 91 16 0 1 75
32
16
8
22
20
12
26
30
6
4
18
10
28
2
14
24
183
34 21 19
36 34 23
38 36 25
40 38 27
42 40 29
44 42 31
46 43 30
48 47 45
50 49 14
52 41 28
54 53 43
56 55 12
58 39 26
60 59 41
62 61 10
64 37 24
66 65 39
68 67 8
70 66 9
72 71 69
74 35 22
76 75 37
78 77 6
80 20 18
82 81 35
84 82 5
86 83 4
88 19 2
90 89 87
92 76 7
94 93 91
96 94 85
98 97 79
100 99 72
102 101 69
104 60 11
106 105 63
108 106 103
110 109 63
112 54 13
114 113 57
116 114 111
118 117 57
120 48 15
122 121 51
124 123 118
126 109 93
128 18 3
130 129 85
132 90 79
134 132 130
136 134 126
138 136 125
140 107 102
142 98 73
144 143 141
146 144 101
148 115 110
150 149 117
152 150 146
154 152 138
156 154 51
158 121 119
160 159 51
162 161 155
164 163 157
166 33 17
168 32 16
170 169 167
172 171 44
174 170 45
176 175 173
178 177 164
180 176 165
182 181 179
i0 1 x[7]
i1 2 y[7]
i2 2 y[3]
i3 1 x[2]
i4 1 x[1]
i5 2 y[5]
i6 1 x[4]
i7 1 x[6]
i8 2 y[2]
i9 2 y[1]
i10 1 x[0]
i11 2 y[4]
i12 1 x[5]
i13 2 y[0]
i14 2 y[6]
i15 1 x[3]
o0 bv[0]
c
simplified
  >
    unary minus
      1
    subtract
      2 y
      add
        unary minus
          1 x
        1
