words_train/words_908_SAT.qaiger.qdimacs
p cnf 91 226
a 9 10 11 12 13 14 15 16 0
e 1 2 3 4 5 6 7 8 17 18 19 20 21 22 23 24 25 26 27 28 29 30 31 32 33 34 35 36 37 38 39 40 41 42 43 44 45 46 47 48 49 50 51 52 53 54 55 56 57 58 59 60 61 62 63 64 65 66 67 68 69 70 71 72 73 74 75 76 77 78 79 80 81 82 83 84 85 86 87 88 89 90 91 0
10 9 17 0
-10 -17 0
-9 -17 0
-17 11 18 0
17 -18 0
-11 -18 0
-18 12 19 0
18 -19 0
-12 -19 0
-19 13 20 0
19 -20 0
-13 -20 0
-20 14 21 0
20 -21 0
-14 -21 0
-21 15 22 0
21 -22 0
-15 -22 0
21 -15 23 0
-21 -23 0
15 -23 0
23 22 24 0
-23 -24 0
-22 -24 0
24 -7 25 0
-24 -25 0
7 -25 0
20 -14 26 0
-20 -26 0
14 -26 0
26 21 27 0
-26 -27 0
-21 -27 0
27 -6 28 0
-27 -28 0
6 -28 0
19 -13 29 0
-19 -29 0
13 -29 0
29 20 30 0
-29 -30 0
-20 -30 0
30 -5 31 0
-30 -31 0
5 -31 0
18 -12 32 0
-18 -32 0
12 -32 0
32 19 33 0
-32 -33 0
-19 -33 0
33 -4 34 0
-33 -34 0
4 -34 0
-33 4 35 0
33 -35 0
-4 -35 0
35 34 36 0
-35 -36 0
-34 -36 0
17 -11 37 0
-17 -37 0
11 -37 0
37 18 38 0
-37 -38 0
-18 -38 0
38 -3 39 0
-38 -39 0
3 -39 0
-10 -9 40 0
10 -40 0
9 -40 0
40 17 41 0
-40 -41 0
-17 -41 0
-41 2 42 0
41 -42 0
-2 -42 0
41 -2 43 0
-41 -43 0
2 -43 0
9 -1 44 0
-9 -44 0
1 -44 0
44 43 45 0
-44 -45 0
-43 -45 0
-38 3 46 0
38 -46 0
-3 -46 0
46 45 47 0
-46 -47 0
-45 -47 0
-47 42 48 0
47 -48 0
-42 -48 0
48 39 49 0
-48 -49 0
-39 -49 0
49 -36 50 0
-49 -50 0
36 -50 0
50 34 51 0
-50 -51 0
-34 -51 0
-30 5 52 0
30 -52 0
-5 -52 0
52 31 53 0
-52 -53 0
-31 -53 0
-53 51 54 0
53 -54 0
-51 -54 0
54 31 55 0
-54 -55 0
-31 -55 0
-27 6 56 0
27 -56 0
-6 -56 0
56 28 57 0
-56 -57 0
-28 -57 0
-57 55 58 0
57 -58 0
-55 -58 0
58 28 59 0
-58 -59 0
-28 -59 0
-24 7 60 0
24 -60 0
-7 -60 0
60 25 61 0
-60 -61 0
-25 -61 0
61 -59 62 0
-61 -62 0
59 -62 0
54 46 63 0
-54 -63 0
-46 -63 0
-9 1 64 0
9 -64 0
-1 -64 0
64 42 65 0
-64 -65 0
-42 -65 0
-45 39 66 0
45 -66 0
-39 -66 0
-66 -65 67 0
66 -67 0
65 -67 0
-67 -63 68 0
67 -68 0
63 -68 0
-68 62 69 0
68 -69 0
-62 -69 0
53 -51 70 0
-53 -70 0
51 -70 0
-49 36 71 0
49 -71 0
-36 -71 0
71 70 72 0
-71 -72 0
-70 -72 0
-72 50 73 0
72 -73 0
-50 -73 0
57 -55 74 0
-57 -74 0
55 -74 0
74 58 75 0
-74 -75 0
-58 -75 0
-75 -73 76 0
75 -76 0
73 -76 0
-76 -69 77 0
76 -77 0
69 -77 0
-77 25 78 0
77 -78 0
-25 -78 0
60 59 79 0
-60 -79 0
-59 -79 0
79 25 80 0
-79 -80 0
-25 -80 0
80 77 81 0
-80 -81 0
-77 -81 0
81 78 82 0
-81 -82 0
-78 -82 0
16 8 83 0
-16 -83 0
-8 -83 0
-16 -8 84 0
16 -84 0
8 -84 0
84 83 85 0
-84 -85 0
-83 -85 0
85 -22 86 0
-85 -86 0
22 -86 0
-85 22 87 0
85 -87 0
-22 -87 0
87 86 88 0
-87 -88 0
-86 -88 0
88 -82 89 0
-88 -89 0
82 -89 0
-88 82 90 0
88 -90 0
-82 -90 0
90 89 91 0
-90 -91 0
-89 -91 0
-91 0
